120
150
60
31
87
38
59
93
56
20
91
64
44
85
65
77
73
37
89
32
97
62
37
83
84
62
37
52
22
42
69
20
35
68
82
53
97
39
59
52
48
24
48
72
97
41
65
85
53
37
30
38
72
40
47
53
50
26
93
57
35
26
38
93
57
22
29
56
94
84
73
35
37
58
95
59
63
87
72
23
65
39
55
55
63
93
43
84
24
97
57
87
38
53
44
44
97
64
39
95
38
53
47
42
95
55
42
33
26
87
63
29
64
36
50
74
93
75
95
65
85
56
